5 2
6 2
7 2
8 1
9 3
10 5
11 4
5 6
6 4
7 2
8 6
9 3
10 6
11 2
5 4
6 6
7 4
8 6
9 3
10 7
11 6
5 7
6 7
7 8
8 7
9 8
10 8
11 7
5 8
6 6
7 8
8 7
9 8
10 6
11 9
5 10
6 9
7 10
8 10
9 10
10 8
11 7
5 7
6 8
7 9
8 10
9 9
10 8
11 11
5 10
6 12
7 10
8 12
9 11
10 8
